letting n =  10
letting blocks =  [[1, 5], [2, 5], [2, 7], [2, 9], [2, 10], [3, 2], [3, 5], [3, 7], [4, 3], [4, 4], [4, 6], [4, 7], [4, 9], [5, 1], [5, 2], [6, 1], [6, 8], [6, 9], [7, 3], [7, 7], [8, 1], [8, 4], [8, 5], [8, 8], [9, 2], [10, 2], [10, 8], [10, 9]]
